GEOM40_nodup.col 40 6 78 79
6 6 6 6 6 6 6 6 6 6 6 6 6 6 6 6 6 6 6 6 6 6 6 6 6 6 6 6 6 6 6 6 6 6 6 6 6 6 6 6
2 0 1 0 6
0 0 1
1 1 1
2 2 1
3 3 1
4 4 1
5 5 1
2 0 2 0 6
0 0 1
1 1 1
2 2 1
3 3 1
4 4 1
5 5 1
2 1 2 0 6
0 0 1
1 1 1
2 2 1
3 3 1
4 4 1
5 5 1
2 1 22 0 6
0 0 1
1 1 1
2 2 1
3 3 1
4 4 1
5 5 1
2 1 29 0 6
0 0 1
1 1 1
2 2 1
3 3 1
4 4 1
5 5 1
2 2 22 0 6
0 0 1
1 1 1
2 2 1
3 3 1
4 4 1
5 5 1
2 2 24 0 6
0 0 1
1 1 1
2 2 1
3 3 1
4 4 1
5 5 1
2 2 29 0 6
0 0 1
1 1 1
2 2 1
3 3 1
4 4 1
5 5 1
2 3 5 0 6
0 0 1
1 1 1
2 2 1
3 3 1
4 4 1
5 5 1
2 3 6 0 6
0 0 1
1 1 1
2 2 1
3 3 1
4 4 1
5 5 1
2 3 11 0 6
0 0 1
1 1 1
2 2 1
3 3 1
4 4 1
5 5 1
2 3 17 0 6
0 0 1
1 1 1
2 2 1
3 3 1
4 4 1
5 5 1
2 3 26 0 6
0 0 1
1 1 1
2 2 1
3 3 1
4 4 1
5 5 1
2 4 14 0 6
0 0 1
1 1 1
2 2 1
3 3 1
4 4 1
5 5 1
2 4 20 0 6
0 0 1
1 1 1
2 2 1
3 3 1
4 4 1
5 5 1
2 5 6 0 6
0 0 1
1 1 1
2 2 1
3 3 1
4 4 1
5 5 1
2 5 11 0 6
0 0 1
1 1 1
2 2 1
3 3 1
4 4 1
5 5 1
2 5 17 0 6
0 0 1
1 1 1
2 2 1
3 3 1
4 4 1
5 5 1
2 5 26 0 6
0 0 1
1 1 1
2 2 1
3 3 1
4 4 1
5 5 1
2 6 11 0 6
0 0 1
1 1 1
2 2 1
3 3 1
4 4 1
5 5 1
2 6 17 0 6
0 0 1
1 1 1
2 2 1
3 3 1
4 4 1
5 5 1
2 6 26 0 6
0 0 1
1 1 1
2 2 1
3 3 1
4 4 1
5 5 1
2 7 12 0 6
0 0 1
1 1 1
2 2 1
3 3 1
4 4 1
5 5 1
2 7 20 0 6
0 0 1
1 1 1
2 2 1
3 3 1
4 4 1
5 5 1
2 7 28 0 6
0 0 1
1 1 1
2 2 1
3 3 1
4 4 1
5 5 1
2 8 9 0 6
0 0 1
1 1 1
2 2 1
3 3 1
4 4 1
5 5 1
2 8 34 0 6
0 0 1
1 1 1
2 2 1
3 3 1
4 4 1
5 5 1
2 8 37 0 6
0 0 1
1 1 1
2 2 1
3 3 1
4 4 1
5 5 1
2 9 35 0 6
0 0 1
1 1 1
2 2 1
3 3 1
4 4 1
5 5 1
2 9 37 0 6
0 0 1
1 1 1
2 2 1
3 3 1
4 4 1
5 5 1
2 10 21 0 6
0 0 1
1 1 1
2 2 1
3 3 1
4 4 1
5 5 1
2 10 23 0 6
0 0 1
1 1 1
2 2 1
3 3 1
4 4 1
5 5 1
2 11 17 0 6
0 0 1
1 1 1
2 2 1
3 3 1
4 4 1
5 5 1
2 11 26 0 6
0 0 1
1 1 1
2 2 1
3 3 1
4 4 1
5 5 1
2 12 16 0 6
0 0 1
1 1 1
2 2 1
3 3 1
4 4 1
5 5 1
2 12 28 0 6
0 0 1
1 1 1
2 2 1
3 3 1
4 4 1
5 5 1
2 12 30 0 6
0 0 1
1 1 1
2 2 1
3 3 1
4 4 1
5 5 1
2 13 18 0 6
0 0 1
1 1 1
2 2 1
3 3 1
4 4 1
5 5 1
2 13 19 0 6
0 0 1
1 1 1
2 2 1
3 3 1
4 4 1
5 5 1
2 13 23 0 6
0 0 1
1 1 1
2 2 1
3 3 1
4 4 1
5 5 1
2 13 24 0 6
0 0 1
1 1 1
2 2 1
3 3 1
4 4 1
5 5 1
2 13 25 0 6
0 0 1
1 1 1
2 2 1
3 3 1
4 4 1
5 5 1
2 14 20 0 6
0 0 1
1 1 1
2 2 1
3 3 1
4 4 1
5 5 1
2 14 32 0 6
0 0 1
1 1 1
2 2 1
3 3 1
4 4 1
5 5 1
2 14 34 0 6
0 0 1
1 1 1
2 2 1
3 3 1
4 4 1
5 5 1
2 15 27 0 6
0 0 1
1 1 1
2 2 1
3 3 1
4 4 1
5 5 1
2 15 30 0 6
0 0 1
1 1 1
2 2 1
3 3 1
4 4 1
5 5 1
2 15 32 0 6
0 0 1
1 1 1
2 2 1
3 3 1
4 4 1
5 5 1
2 15 33 0 6
0 0 1
1 1 1
2 2 1
3 3 1
4 4 1
5 5 1
2 15 36 0 6
0 0 1
1 1 1
2 2 1
3 3 1
4 4 1
5 5 1
2 15 38 0 6
0 0 1
1 1 1
2 2 1
3 3 1
4 4 1
5 5 1
2 16 28 0 6
0 0 1
1 1 1
2 2 1
3 3 1
4 4 1
5 5 1
2 16 30 0 6
0 0 1
1 1 1
2 2 1
3 3 1
4 4 1
5 5 1
2 16 31 0 6
0 0 1
1 1 1
2 2 1
3 3 1
4 4 1
5 5 1
2 17 26 0 6
0 0 1
1 1 1
2 2 1
3 3 1
4 4 1
5 5 1
2 18 19 0 6
0 0 1
1 1 1
2 2 1
3 3 1
4 4 1
5 5 1
2 19 24 0 6
0 0 1
1 1 1
2 2 1
3 3 1
4 4 1
5 5 1
2 19 29 0 6
0 0 1
1 1 1
2 2 1
3 3 1
4 4 1
5 5 1
2 21 27 0 6
0 0 1
1 1 1
2 2 1
3 3 1
4 4 1
5 5 1
2 22 23 0 6
0 0 1
1 1 1
2 2 1
3 3 1
4 4 1
5 5 1
2 22 24 0 6
0 0 1
1 1 1
2 2 1
3 3 1
4 4 1
5 5 1
2 22 29 0 6
0 0 1
1 1 1
2 2 1
3 3 1
4 4 1
5 5 1
2 23 24 0 6
0 0 1
1 1 1
2 2 1
3 3 1
4 4 1
5 5 1
2 24 29 0 6
0 0 1
1 1 1
2 2 1
3 3 1
4 4 1
5 5 1
2 25 34 0 6
0 0 1
1 1 1
2 2 1
3 3 1
4 4 1
5 5 1
2 27 33 0 6
0 0 1
1 1 1
2 2 1
3 3 1
4 4 1
5 5 1
2 27 36 0 6
0 0 1
1 1 1
2 2 1
3 3 1
4 4 1
5 5 1
2 27 38 0 6
0 0 1
1 1 1
2 2 1
3 3 1
4 4 1
5 5 1
2 28 30 0 6
0 0 1
1 1 1
2 2 1
3 3 1
4 4 1
5 5 1
2 28 31 0 6
0 0 1
1 1 1
2 2 1
3 3 1
4 4 1
5 5 1
2 30 36 0 6
0 0 1
1 1 1
2 2 1
3 3 1
4 4 1
5 5 1
2 31 36 0 6
0 0 1
1 1 1
2 2 1
3 3 1
4 4 1
5 5 1
2 31 38 0 6
0 0 1
1 1 1
2 2 1
3 3 1
4 4 1
5 5 1
2 33 36 0 6
0 0 1
1 1 1
2 2 1
3 3 1
4 4 1
5 5 1
2 33 38 0 6
0 0 1
1 1 1
2 2 1
3 3 1
4 4 1
5 5 1
2 34 37 0 6
0 0 1
1 1 1
2 2 1
3 3 1
4 4 1
5 5 1
2 35 37 0 6
0 0 1
1 1 1
2 2 1
3 3 1
4 4 1
5 5 1
2 36 38 0 6
0 0 1
1 1 1
2 2 1
3 3 1
4 4 1
5 5 1
